p cnf 106 356
c p weight -41 1 0
c p weight 41 -1 0
c p weight 45 6.12323399573676603586882014729198302312846062338790031898128063403419218957424163818359375E-17 0
c p weight -45 1 0
c p weight 46 1 0
c p weight -46 1 0
c p weight -43 1 0
c p weight 43 -1 0
c p weight -47 1 0
c p weight 47 -1 0
c p weight -49 1 0
c p weight 49 -1 0
c p weight -52 1 0
c p weight 52 -1 0
c p weight -55 1 0
c p weight 55 -1 0
c p weight -58 1 0
c p weight 58 -1 0
c p weight -61 1 0
c p weight 61 -1 0
c p weight -64 1 0
c p weight 64 -1 0
c p weight -67 1 0
c p weight 67 -1 0
c p weight -70 1 0
c p weight 70 -1 0
c p weight -73 1 0
c p weight 73 -1 0
c p weight -76 1 0
c p weight 76 -1 0
c p weight -79 1 0
c p weight 79 -1 0
c p weight -82 1 0
c p weight 82 -1 0
c p weight -85 1 0
c p weight 85 -1 0
c p weight -88 1 0
c p weight 88 -1 0
c p weight -91 1 0
c p weight 91 -1 0
c p weight -94 1 0
c p weight 94 -1 0
c p weight -97 1 0
c p weight 97 -1 0
c p weight -100 1 0
c p weight 100 -1 0
c p weight -103 1 0
c p weight 103 -1 0
c p weight 106 0.5 0
c p weight -106 1 0
106 0
-39 0
-37 0
-35 0
-33 0
-31 0
-29 0
-27 0
-25 0
-23 0
-21 0
-19 0
-17 0
-15 0
-13 0
-11 0
-9 0
-7 0
-5 0
-3 0
-1 0
-41 39 0
-41 40 0
41 -39 -40 0
42 39 -40 0
42 -39 40 0
-42 39 40 0
-42 -39 -40 0
-43 44 0
-43 42 0
-43 -39 0
43 -44 39 -42 0
44 -39 42 0
-44 39 42 0
-45 42 0
44 -45 -39 0
-44 -45 39 0
44 45 39 -42 0
-44 45 -39 -42 0
-46 42 0
44 -46 39 0
-44 -46 -39 0
44 46 -39 -42 0
-44 46 39 -42 0
-47 44 0
-47 42 0
47 -44 -42 0
48 44 -42 0
48 -44 42 0
-48 44 42 0
-48 -44 -42 0
-49 44 0
-49 38 0
-49 37 -48 0
-49 -37 48 0
49 -44 37 48 -38 0
49 -44 -37 -48 -38 0
51 44 -37 0
51 -44 37 0
-51 44 37 0
-51 -44 -37 0
50 48 -38 0
50 -48 38 0
-50 48 38 0
-50 -48 -38 0
-52 51 0
-52 36 0
-52 35 -38 0
-52 -35 38 0
52 -51 35 38 -36 0
52 -51 -35 -38 -36 0
54 51 -35 0
54 -51 35 0
-54 51 35 0
-54 -51 -35 0
53 38 -36 0
53 -38 36 0
-53 38 36 0
-53 -38 -36 0
-55 54 0
-55 34 0
-55 33 -36 0
-55 -33 36 0
55 -54 33 36 -34 0
55 -54 -33 -36 -34 0
57 54 -33 0
57 -54 33 0
-57 54 33 0
-57 -54 -33 0
56 36 -34 0
56 -36 34 0
-56 36 34 0
-56 -36 -34 0
-58 57 0
-58 32 0
-58 31 -34 0
-58 -31 34 0
58 -57 31 34 -32 0
58 -57 -31 -34 -32 0
60 57 -31 0
60 -57 31 0
-60 57 31 0
-60 -57 -31 0
59 34 -32 0
59 -34 32 0
-59 34 32 0
-59 -34 -32 0
-61 60 0
-61 30 0
-61 29 -32 0
-61 -29 32 0
61 -60 29 32 -30 0
61 -60 -29 -32 -30 0
63 60 -29 0
63 -60 29 0
-63 60 29 0
-63 -60 -29 0
62 32 -30 0
62 -32 30 0
-62 32 30 0
-62 -32 -30 0
-64 63 0
-64 28 0
-64 27 -30 0
-64 -27 30 0
64 -63 27 30 -28 0
64 -63 -27 -30 -28 0
66 63 -27 0
66 -63 27 0
-66 63 27 0
-66 -63 -27 0
65 30 -28 0
65 -30 28 0
-65 30 28 0
-65 -30 -28 0
-67 66 0
-67 26 0
-67 25 -28 0
-67 -25 28 0
67 -66 25 28 -26 0
67 -66 -25 -28 -26 0
69 66 -25 0
69 -66 25 0
-69 66 25 0
-69 -66 -25 0
68 28 -26 0
68 -28 26 0
-68 28 26 0
-68 -28 -26 0
-70 69 0
-70 24 0
-70 23 -26 0
-70 -23 26 0
70 -69 23 26 -24 0
70 -69 -23 -26 -24 0
72 69 -23 0
72 -69 23 0
-72 69 23 0
-72 -69 -23 0
71 26 -24 0
71 -26 24 0
-71 26 24 0
-71 -26 -24 0
-73 72 0
-73 22 0
-73 21 -24 0
-73 -21 24 0
73 -72 21 24 -22 0
73 -72 -21 -24 -22 0
75 72 -21 0
75 -72 21 0
-75 72 21 0
-75 -72 -21 0
74 24 -22 0
74 -24 22 0
-74 24 22 0
-74 -24 -22 0
-76 75 0
-76 20 0
-76 19 -22 0
-76 -19 22 0
76 -75 19 22 -20 0
76 -75 -19 -22 -20 0
78 75 -19 0
78 -75 19 0
-78 75 19 0
-78 -75 -19 0
77 22 -20 0
77 -22 20 0
-77 22 20 0
-77 -22 -20 0
-79 78 0
-79 18 0
-79 17 -20 0
-79 -17 20 0
79 -78 17 20 -18 0
79 -78 -17 -20 -18 0
81 78 -17 0
81 -78 17 0
-81 78 17 0
-81 -78 -17 0
80 20 -18 0
80 -20 18 0
-80 20 18 0
-80 -20 -18 0
-82 81 0
-82 16 0
-82 15 -18 0
-82 -15 18 0
82 -81 15 18 -16 0
82 -81 -15 -18 -16 0
84 81 -15 0
84 -81 15 0
-84 81 15 0
-84 -81 -15 0
83 18 -16 0
83 -18 16 0
-83 18 16 0
-83 -18 -16 0
-85 84 0
-85 14 0
-85 13 -16 0
-85 -13 16 0
85 -84 13 16 -14 0
85 -84 -13 -16 -14 0
87 84 -13 0
87 -84 13 0
-87 84 13 0
-87 -84 -13 0
86 16 -14 0
86 -16 14 0
-86 16 14 0
-86 -16 -14 0
-88 87 0
-88 12 0
-88 11 -14 0
-88 -11 14 0
88 -87 11 14 -12 0
88 -87 -11 -14 -12 0
90 87 -11 0
90 -87 11 0
-90 87 11 0
-90 -87 -11 0
89 14 -12 0
89 -14 12 0
-89 14 12 0
-89 -14 -12 0
-91 90 0
-91 10 0
-91 9 -12 0
-91 -9 12 0
91 -90 9 12 -10 0
91 -90 -9 -12 -10 0
93 90 -9 0
93 -90 9 0
-93 90 9 0
-93 -90 -9 0
92 12 -10 0
92 -12 10 0
-92 12 10 0
-92 -12 -10 0
-94 93 0
-94 8 0
-94 7 -10 0
-94 -7 10 0
94 -93 7 10 -8 0
94 -93 -7 -10 -8 0
96 93 -7 0
96 -93 7 0
-96 93 7 0
-96 -93 -7 0
95 10 -8 0
95 -10 8 0
-95 10 8 0
-95 -10 -8 0
-97 96 0
-97 6 0
-97 5 -8 0
-97 -5 8 0
97 -96 5 8 -6 0
97 -96 -5 -8 -6 0
99 96 -5 0
99 -96 5 0
-99 96 5 0
-99 -96 -5 0
98 8 -6 0
98 -8 6 0
-98 8 6 0
-98 -8 -6 0
-100 99 0
-100 4 0
-100 3 -6 0
-100 -3 6 0
100 -99 3 6 -4 0
100 -99 -3 -6 -4 0
102 99 -3 0
102 -99 3 0
-102 99 3 0
-102 -99 -3 0
101 6 -4 0
101 -6 4 0
-101 6 4 0
-101 -6 -4 0
-103 102 0
-103 2 0
-103 1 -4 0
-103 -1 4 0
103 -102 1 4 -2 0
103 -102 -1 -4 -2 0
105 102 -1 0
105 -102 1 0
-105 102 1 0
-105 -102 -1 0
104 4 -2 0
104 -4 2 0
-104 4 2 0
-104 -4 -2 0
-105 0
-102 0
-104 0
-99 0
-101 0
-96 0
-98 0
-93 0
-95 0
-90 0
-92 0
-87 0
-89 0
-84 0
-86 0
-81 0
-83 0
-78 0
-80 0
-75 0
-77 0
-72 0
-74 0
-69 0
-71 0
-66 0
-68 0
-63 0
-65 0
-60 0
-62 0
-57 0
-59 0
-54 0
-56 0
-51 0
-53 0
-44 0
-50 0
